# Generated by ConicBenchmarkUtilities.jl
VER
2

OBJSENSE
MIN

VAR
184 1
F 184

INT
60
27
28
29
30
31
32
33
34
35
36
37
38
39
40
41
42
43
44
45
46
47
48
49
50
51
52
53
54
55
56
104
106
108
110
112
114
115
116
117
120
123
126
127
128
129
131
133
135
137
139
141
143
145
147
148
149
150
151
152
153

CON
598 562
L= 1
L= 1
L= 1
L= 1
L= 1
L= 1
L= 1
L= 1
L= 1
L= 1
L= 1
L= 1
L= 1
L= 1
L= 1
L= 1
L= 1
L= 1
L= 1
EXP 3
L+ 1
EXP 3
L+ 1
EXP 3
L+ 1
L+ 1
L+ 1
L+ 1
L+ 1
L+ 1
L+ 1
EXP 3
L+ 1
EXP 3
L+ 1
EXP 3
L+ 1
L+ 1
L+ 1
L+ 1
L+ 1
L+ 1
L+ 1
L+ 1
L+ 1
L+ 1
L+ 1
L+ 1
L+ 1
L+ 1
L+ 1
L+ 1
L+ 1
L+ 1
L+ 1
EXP 3
L+ 1
EXP 3
L+ 1
EXP 3
L+ 1
L+ 1
L+ 1
L+ 1
L+ 1
L+ 1
L+ 1
L+ 1
L+ 1
L+ 1
L+ 1
L+ 1
L+ 1
L+ 1
L+ 1
L+ 1
L+ 1
L+ 1
L+ 1
L+ 1
L+ 1
L+ 1
L+ 1
L+ 1
L+ 1
L+ 1
L+ 1
L+ 1
EXP 3
L+ 1
EXP 3
L+ 1
EXP 3
L+ 1
L+ 1
L+ 1
L+ 1
L+ 1
L+ 1
L+ 1
EXP 3
L+ 1
EXP 3
L+ 1
EXP 3
L+ 1
L+ 1
L+ 1
L+ 1
L+ 1
L+ 1
L+ 1
EXP 3
L+ 1
EXP 3
L+ 1
EXP 3
L+ 1
L+ 1
L+ 1
L+ 1
L+ 1
L+ 1
L+ 1
L+ 1
L+ 1
L+ 1
L+ 1
L+ 1
L+ 1
L+ 1
L+ 1
L+ 1
L+ 1
L+ 1
L+ 1
L+ 1
L+ 1
L+ 1
L+ 1
L+ 1
L+ 1
L+ 1
L+ 1
L+ 1
L+ 1
L+ 1
L+ 1
L+ 1
L+ 1
L+ 1
L+ 1
L+ 1
L+ 1
L+ 1
L+ 1
L+ 1
L+ 1
L+ 1
L+ 1
L+ 1
L+ 1
L+ 1
L+ 1
L+ 1
L+ 1
L+ 1
L+ 1
L+ 1
L+ 1
L+ 1
L+ 1
L+ 1
L+ 1
L+ 1
L+ 1
L+ 1
L+ 1
L+ 1
L+ 1
L+ 1
L+ 1
L+ 1
L+ 1
L+ 1
L+ 1
L+ 1
L+ 1
L+ 1
L+ 1
L+ 1
L+ 1
L+ 1
L+ 1
L+ 1
L+ 1
L+ 1
L+ 1
L+ 1
L+ 1
L+ 1
L+ 1
L+ 1
L+ 1
L+ 1
L+ 1
L+ 1
L+ 1
L+ 1
L+ 1
L+ 1
L+ 1
L+ 1
L+ 1
L+ 1
L+ 1
L+ 1
L+ 1
L+ 1
L+ 1
L+ 1
L+ 1
L+ 1
L+ 1
L+ 1
L+ 1
L+ 1
L+ 1
L+ 1
L+ 1
L+ 1
L+ 1
L+ 1
L+ 1
L+ 1
L+ 1
L+ 1
L+ 1
L+ 1
L+ 1
L+ 1
L+ 1
L+ 1
L+ 1
L+ 1
L+ 1
L+ 1
L+ 1
L+ 1
L+ 1
L+ 1
L+ 1
L+ 1
L+ 1
L+ 1
L+ 1
L+ 1
L+ 1
L+ 1
L+ 1
L+ 1
L+ 1
L+ 1
L+ 1
L+ 1
L+ 1
L+ 1
L+ 1
L+ 1
L+ 1
L+ 1
L+ 1
L+ 1
L+ 1
L+ 1
L+ 1
L+ 1
L+ 1
L+ 1
L+ 1
L+ 1
L+ 1
L+ 1
L+ 1
L+ 1
L+ 1
L+ 1
L+ 1
L+ 1
L+ 1
L+ 1
L+ 1
L+ 1
L+ 1
L+ 1
L+ 1
L+ 1
L+ 1
L+ 1
L+ 1
L+ 1
L+ 1
L+ 1
L+ 1
L+ 1
L+ 1
L+ 1
L+ 1
L+ 1
L+ 1
L+ 1
L+ 1
L+ 1
L+ 1
L+ 1
L+ 1
L+ 1
L+ 1
L+ 1
L+ 1
L+ 1
L+ 1
L+ 1
L+ 1
L+ 1
L+ 1
L+ 1
L+ 1
L= 1
L= 1
L= 1
L+ 1
L+ 1
L+ 1
L+ 1
L+ 1
L+ 1
L+ 1
L+ 1
L+ 1
L+ 1
L+ 1
L+ 1
L+ 1
L+ 1
L+ 1
L+ 1
L+ 1
L+ 1
L+ 1
L+ 1
L+ 1
L+ 1
L+ 1
L+ 1
L+ 1
L+ 1
L+ 1
L+ 1
L+ 1
L+ 1
L+ 1
L+ 1
L+ 1
L+ 1
L+ 1
L+ 1
L+ 1
L+ 1
L+ 1
L+ 1
L+ 1
L+ 1
L+ 1
L+ 1
L+ 1
L+ 1
L+ 1
L+ 1
L+ 1
L+ 1
L+ 1
L+ 1
L+ 1
L+ 1
L+ 1
L+ 1
L+ 1
L+ 1
L+ 1
L+ 1
L+ 1
L+ 1
L+ 1
L+ 1
L+ 1
L+ 1
L+ 1
L+ 1
L+ 1
L+ 1
L+ 1
L+ 1
L+ 1
L+ 1
L+ 1
L+ 1
L+ 1
L+ 1
L+ 1
L+ 1
L+ 1
L+ 1
L+ 1
L+ 1
L+ 1
L+ 1
L+ 1
L+ 1
L+ 1
L+ 1
L+ 1
L+ 1
L+ 1
L+ 1
L+ 1
L+ 1
L+ 1
L+ 1
L+ 1
L+ 1
L+ 1
L+ 1
L+ 1
L+ 1
L+ 1
L+ 1
L+ 1
L+ 1
L+ 1
L+ 1
L+ 1
L+ 1
L+ 1
L+ 1
L+ 1
L+ 1
L+ 1
L+ 1
L+ 1
L+ 1
L+ 1
L+ 1
L+ 1
L+ 1
L+ 1
L+ 1
L+ 1
L+ 1
L+ 1
L+ 1
L+ 1
L+ 1
L+ 1
L+ 1
L+ 1
L+ 1
L+ 1
L+ 1
L+ 1
L+ 1
L+ 1
L+ 1
L+ 1
L+ 1
L+ 1
L+ 1
L+ 1
L+ 1
L+ 1
L+ 1
L+ 1
L+ 1
L+ 1
L+ 1
L+ 1
L+ 1
L+ 1
L+ 1
L+ 1
L+ 1
L+ 1
L+ 1
L+ 1
L+ 1
L+ 1
L+ 1
L+ 1
L+ 1
L+ 1
L+ 1
L+ 1
L+ 1
L+ 1
L+ 1
L+ 1
L+ 1
L+ 1
L+ 1
L+ 1
L+ 1
L+ 1
L+ 1
L+ 1
L+ 1
L+ 1
L+ 1
L+ 1
L+ 1
L+ 1
L+ 1
L+ 1
L+ 1
L+ 1
L+ 1
L+ 1
L+ 1
L+ 1
L+ 1
L+ 1
L+ 1
L+ 1
L+ 1
L+ 1
L+ 1
L+ 1
L+ 1
L+ 1
L+ 1
L+ 1
L+ 1
L+ 1
L+ 1
L+ 1
L+ 1
L+ 1
L+ 1
L+ 1
L+ 1
L+ 1
L+ 1
L+ 1
L+ 1
L+ 1
L+ 1
L+ 1
L+ 1
L+ 1
L+ 1
L+ 1
L+ 1
L+ 1

OBJACOORD
1
57 -1.0

ACOORD
1093
0 0 -1.0
1 0 1.0
397 0 1.0
398 0 -1.0
0 1 -1.0
2 1 1.0
399 1 1.0
400 1 -1.0
0 2 -1.0
3 2 1.0
401 2 1.0
402 2 -1.0
0 3 5.0
7 3 -1.0
418 3 1.0
0 4 10.0
8 4 -1.0
419 4 1.0
0 5 5.0
9 5 -1.0
420 5 1.0
0 6 -2.0
91 6 0.5
94 6 -0.5
100 6 -1.0
433 6 1.0
434 6 -1.0
0 7 -1.0
92 7 0.5
95 7 -0.5
101 7 -1.0
435 7 1.0
436 7 -1.0
0 8 -2.0
93 8 0.5
96 8 -0.5
102 8 -1.0
437 8 1.0
438 8 -1.0
0 9 80.0
16 9 -1.0
460 9 1.0
0 10 90.0
17 10 -1.0
461 10 1.0
0 11 120.0
18 11 -1.0
462 11 1.0
0 12 285.0
109 12 -1.0
121 12 -1.0
463 12 1.0
0 13 390.0
113 13 -1.0
122 13 -1.0
464 13 1.0
0 14 350.0
117 14 -1.0
123 14 -1.0
465 14 1.0
0 15 290.0
127 15 -1.0
139 15 -1.0
466 15 1.0
0 16 405.0
131 16 -1.0
140 16 -1.0
467 16 1.0
0 17 190.0
135 17 -1.0
141 17 -1.0
468 17 1.0
0 18 280.0
145 18 -1.0
157 18 -1.0
469 18 1.0
0 19 400.0
149 19 -1.0
158 19 -1.0
470 19 1.0
0 20 430.0
153 20 -1.0
159 20 -1.0
471 20 1.0
0 21 290.0
160 21 -1.0
163 21 1.0
169 21 -1.0
472 21 1.0
0 22 300.0
161 22 -1.0
164 22 1.0
170 22 -1.0
473 22 1.0
0 23 240.0
162 23 -1.0
165 23 1.0
171 23 -1.0
474 23 1.0
0 24 350.0
172 24 -1.0
175 24 1.0
181 24 -1.0
475 24 1.0
0 25 250.0
173 25 -1.0
176 25 1.0
182 25 -1.0
476 25 1.0
0 26 300.0
174 26 -1.0
177 26 1.0
183 26 -1.0
477 26 1.0
0 27 -5.0
184 27 -5.0
214 27 5.0
274 27 -1.0
275 27 -1.0
276 27 -1.0
278 27 -1.0
334 27 1.0
538 27 1.0
539 27 -1.0
0 28 -4.0
185 28 -4.0
215 28 4.0
274 28 -1.0
276 28 -1.0
277 28 -1.0
279 28 -1.0
335 28 1.0
540 28 1.0
541 28 -1.0
0 29 -6.0
186 29 -6.0
216 29 6.0
275 29 -1.0
277 29 -1.0
278 29 -1.0
279 29 -1.0
336 29 1.0
542 29 1.0
543 29 -1.0
0 30 -8.0
187 30 -8.0
217 30 8.0
280 30 -1.0
281 30 -1.0
282 30 -1.0
284 30 -1.0
337 30 1.0
544 30 1.0
545 30 -1.0
0 31 -7.0
188 31 -7.0
218 31 7.0
280 31 -1.0
282 31 -1.0
283 31 -1.0
285 31 -1.0
338 31 1.0
546 31 1.0
547 31 -1.0
0 32 -6.0
189 32 -6.0
219 32 6.0
281 32 -1.0
283 32 -1.0
284 32 -1.0
285 32 -1.0
339 32 1.0
548 32 1.0
549 32 -1.0
0 33 -6.0
190 33 -6.0
220 33 6.0
286 33 -1.0
287 33 -1.0
288 33 -1.0
290 33 -1.0
340 33 1.0
550 33 1.0
551 33 -1.0
0 34 -9.0
191 34 -9.0
221 34 9.0
286 34 -1.0
288 34 -1.0
289 34 -1.0
291 34 -1.0
341 34 1.0
552 34 1.0
553 34 -1.0
0 35 -4.0
192 35 -4.0
222 35 4.0
287 35 -1.0
289 35 -1.0
290 35 -1.0
291 35 -1.0
342 35 1.0
554 35 1.0
555 35 -1.0
0 36 -10.0
193 36 -10.0
223 36 10.0
292 36 -1.0
293 36 -1.0
294 36 -1.0
296 36 -1.0
343 36 1.0
556 36 1.0
557 36 -1.0
0 37 -9.0
194 37 -9.0
224 37 9.0
292 37 -1.0
294 37 -1.0
295 37 -1.0
297 37 -1.0
344 37 1.0
558 37 1.0
559 37 -1.0
0 38 -5.0
195 38 -5.0
225 38 5.0
293 38 -1.0
295 38 -1.0
296 38 -1.0
297 38 -1.0
345 38 1.0
560 38 1.0
561 38 -1.0
0 39 -6.0
196 39 -6.0
226 39 6.0
298 39 -1.0
299 39 -1.0
300 39 -1.0
302 39 -1.0
346 39 1.0
562 39 1.0
563 39 -1.0
0 40 -10.0
197 40 -10.0
227 40 10.0
298 40 -1.0
300 40 -1.0
301 40 -1.0
303 40 -1.0
347 40 1.0
564 40 1.0
565 40 -1.0
0 41 -6.0
198 41 -6.0
228 41 6.0
299 41 -1.0
301 41 -1.0
302 41 -1.0
303 41 -1.0
348 41 1.0
566 41 1.0
567 41 -1.0
0 42 -7.0
199 42 -7.0
229 42 7.0
304 42 -1.0
305 42 -1.0
306 42 -1.0
308 42 -1.0
349 42 1.0
568 42 1.0
569 42 -1.0
0 43 -7.0
200 43 -7.0
230 43 7.0
304 43 -1.0
306 43 -1.0
307 43 -1.0
309 43 -1.0
350 43 1.0
570 43 1.0
571 43 -1.0
0 44 -4.0
201 44 -4.0
231 44 4.0
305 44 -1.0
307 44 -1.0
308 44 -1.0
309 44 -1.0
351 44 1.0
572 44 1.0
573 44 -1.0
0 45 -4.0
202 45 -4.0
232 45 4.0
310 45 -1.0
311 45 -1.0
312 45 -1.0
314 45 -1.0
352 45 1.0
574 45 1.0
575 45 -1.0
0 46 -3.0
203 46 -3.0
233 46 3.0
310 46 -1.0
312 46 -1.0
313 46 -1.0
315 46 -1.0
353 46 1.0
576 46 1.0
577 46 -1.0
0 47 -2.0
204 47 -2.0
234 47 2.0
311 47 -1.0
313 47 -1.0
314 47 -1.0
315 47 -1.0
354 47 1.0
578 47 1.0
579 47 -1.0
0 48 -5.0
205 48 -5.0
235 48 5.0
316 48 -1.0
317 48 -1.0
318 48 -1.0
320 48 -1.0
355 48 1.0
580 48 1.0
581 48 -1.0
0 49 -6.0
206 49 -6.0
236 49 6.0
316 49 -1.0
318 49 -1.0
319 49 -1.0
321 49 -1.0
356 49 1.0
582 49 1.0
583 49 -1.0
0 50 -7.0
207 50 -7.0
237 50 7.0
317 50 -1.0
319 50 -1.0
320 50 -1.0
321 50 -1.0
357 50 1.0
584 50 1.0
585 50 -1.0
0 51 -2.0
208 51 -2.0
238 51 2.0
322 51 -1.0
323 51 -1.0
324 51 -1.0
326 51 -1.0
358 51 1.0
586 51 1.0
587 51 -1.0
0 52 -5.0
209 52 -5.0
239 52 5.0
322 52 -1.0
324 52 -1.0
325 52 -1.0
327 52 -1.0
359 52 1.0
588 52 1.0
589 52 -1.0
0 53 -2.0
210 53 -2.0
240 53 2.0
323 53 -1.0
325 53 -1.0
326 53 -1.0
327 53 -1.0
360 53 1.0
590 53 1.0
591 53 -1.0
0 54 -4.0
211 54 -4.0
241 54 4.0
328 54 -1.0
329 54 -1.0
330 54 -1.0
332 54 -1.0
361 54 1.0
592 54 1.0
593 54 -1.0
0 55 -7.0
212 55 -7.0
242 55 7.0
328 55 -1.0
330 55 -1.0
331 55 -1.0
333 55 -1.0
362 55 1.0
594 55 1.0
595 55 -1.0
0 56 -4.0
213 56 -4.0
243 56 4.0
329 56 -1.0
331 56 -1.0
332 56 -1.0
333 56 -1.0
363 56 1.0
596 56 1.0
597 56 -1.0
0 57 -1.0
1 58 -1.0
19 58 1.0
31 58 -1.0
403 58 1.0
1 59 -1.0
37 59 1.0
49 59 -1.0
406 59 1.0
2 60 -1.0
23 60 1.0
32 60 -1.0
404 60 1.0
2 61 -1.0
41 61 1.0
50 61 -1.0
407 61 1.0
3 62 -1.0
27 62 1.0
33 62 -1.0
405 62 1.0
3 63 -1.0
45 63 1.0
51 63 -1.0
408 63 1.0
4 64 -1.0
22 64 -1.0
34 64 -1.0
409 64 1.0
4 65 -1.0
40 65 -1.0
52 65 -1.0
412 65 1.0
4 66 1.0
7 66 1.0
415 66 1.0
5 67 -1.0
26 67 -1.0
35 67 -1.0
410 67 1.0
5 68 -1.0
44 68 -1.0
53 68 -1.0
413 68 1.0
5 69 1.0
8 69 1.0
416 69 1.0
6 70 -1.0
30 70 -1.0
36 70 -1.0
411 70 1.0
6 71 -1.0
48 71 -1.0
54 71 -1.0
414 71 1.0
6 72 1.0
9 72 1.0
417 72 1.0
7 73 -1.0
10 73 1.0
421 73 1.0
8 74 -1.0
11 74 1.0
422 74 1.0
9 75 -1.0
12 75 1.0
423 75 1.0
10 76 -1.0
55 76 0.75
58 76 -0.75
61 76 -1.0
424 76 1.0
10 77 -1.0
67 77 1.0
79 77 -1.0
427 77 1.0
10 78 -1.0
85 78 1.0
88 78 -1.0
97 78 -1.0
430 78 1.0
11 79 -1.0
56 79 0.75
59 79 -0.75
62 79 -1.0
425 79 1.0
11 80 -1.0
71 80 1.0
80 80 -1.0
428 80 1.0
11 81 -1.0
86 81 1.0
89 81 -1.0
98 81 -1.0
431 81 1.0
12 82 -1.0
57 82 0.75
60 82 -0.75
63 82 -1.0
426 82 1.0
12 83 -1.0
75 83 1.0
81 83 -1.0
429 83 1.0
12 84 -1.0
87 84 1.0
90 84 -1.0
99 84 -1.0
432 84 1.0
13 85 1.0
55 85 -1.0
58 85 1.0
64 85 -1.0
439 85 1.0
13 86 -1.0
106 86 1.0
118 86 -1.0
448 86 1.0
13 87 -1.0
124 87 1.0
136 87 -1.0
451 87 1.0
14 88 1.0
56 88 -1.0
59 88 1.0
65 88 -1.0
440 88 1.0
14 89 -1.0
110 89 1.0
119 89 -1.0
449 89 1.0
14 90 -1.0
128 90 1.0
137 90 -1.0
452 90 1.0
15 91 1.0
57 91 -1.0
60 91 1.0
66 91 -1.0
441 91 1.0
15 92 -1.0
114 92 1.0
120 92 -1.0
450 92 1.0
15 93 -1.0
132 93 1.0
138 93 -1.0
453 93 1.0
16 94 1.0
85 94 -1.0
88 94 1.0
91 94 -1.0
94 94 1.0
103 94 -1.0
445 94 1.0
16 95 -1.0
160 95 0.9
163 95 -0.9
166 95 -1.0
454 95 1.0
16 96 -1.0
172 96 0.6
175 96 -0.6
178 96 -1.0
457 96 1.0
17 97 1.0
86 97 -1.0
89 97 1.0
92 97 -1.0
95 97 1.0
104 97 -1.0
446 97 1.0
17 98 -1.0
161 98 0.9
164 98 -0.9
167 98 -1.0
455 98 1.0
17 99 -1.0
173 99 0.6
176 99 -0.6
179 99 -1.0
458 99 1.0
18 100 1.0
87 100 -1.0
90 100 1.0
93 100 -1.0
96 100 1.0
105 100 -1.0
447 100 1.0
18 101 -1.0
162 101 0.9
165 101 -0.9
168 101 -1.0
456 101 1.0
18 102 -1.0
174 102 0.6
177 102 -0.6
180 102 -1.0
459 102 1.0
21 103 1.0
22 103 1.0
22 104 -1.0
31 104 40.0
34 104 3.71357206670431
244 104 -1.0
245 104 -1.0
334 104 -1.0
335 104 1.0
336 104 1.0
364 104 1.0
373 104 1.0
376 104 1.0
379 104 1.0
478 104 1.0
479 104 -1.0
25 105 1.0
26 105 1.0
26 106 -1.0
32 106 40.0
35 106 3.71357206670431
244 106 1.0
246 106 -1.0
335 106 -1.0
336 106 1.0
365 106 1.0
374 106 1.0
377 106 1.0
380 106 1.0
480 106 1.0
481 106 -1.0
29 107 1.0
30 107 1.0
30 108 -1.0
33 108 40.0
36 108 3.71357206670431
245 108 1.0
246 108 1.0
336 108 -1.0
366 108 1.0
375 108 1.0
378 108 1.0
381 108 1.0
482 108 1.0
483 108 -1.0
39 109 1.0
40 109 1.2
40 110 -1.0
49 110 40.0
52 110 4.45628648004517
247 110 -1.0
248 110 -1.0
337 110 -1.0
338 110 1.0
339 110 1.0
364 110 1.0
373 110 1.0
376 110 1.0
379 110 1.0
484 110 1.0
485 110 -1.0
43 111 1.0
44 111 1.2
44 112 -1.0
50 112 40.0
53 112 4.45628648004517
247 112 1.0
249 112 -1.0
338 112 -1.0
339 112 1.0
365 112 1.0
374 112 1.0
377 112 1.0
380 112 1.0
486 112 1.0
487 112 -1.0
47 113 1.0
48 113 1.2
48 114 -1.0
51 114 40.0
54 114 4.45628648004517
248 114 1.0
249 114 1.0
339 114 -1.0
366 114 1.0
375 114 1.0
378 114 1.0
381 114 1.0
488 114 1.0
489 114 -1.0
55 115 -1.0
58 115 -1.0
61 115 4.45628648004517
64 115 3.34221486003388
250 115 -1.0
251 115 -1.0
340 115 -1.0
341 115 1.0
342 115 1.0
367 115 -1.0
373 115 -1.0
382 115 1.0
385 115 1.0
490 115 1.0
491 115 -1.0
56 116 -1.0
59 116 -1.0
62 116 4.45628648004517
65 116 3.34221486003388
250 116 1.0
252 116 -1.0
341 116 -1.0
342 116 1.0
368 116 -1.0
374 116 -1.0
383 116 1.0
386 116 1.0
492 116 1.0
493 116 -1.0
57 117 -1.0
60 117 -1.0
63 117 4.45628648004517
66 117 3.34221486003388
251 117 1.0
252 117 1.0
342 117 -1.0
369 117 -1.0
375 117 -1.0
384 117 1.0
387 117 1.0
494 117 1.0
495 117 -1.0
69 118 1.0
70 118 1.5
70 119 -1.0
82 119 -1.0
142 119 1.0
154 119 -1.0
442 119 1.0
70 120 -1.0
79 120 4.45628648004517
82 120 2.54515263975353
253 120 -1.0
254 120 -1.0
343 120 -1.0
344 120 1.0
345 120 1.0
370 120 -1.0
376 120 -1.0
388 120 1.0
496 120 1.0
497 120 -1.0
73 121 1.0
74 121 1.5
74 122 -1.0
83 122 -1.0
146 122 1.0
155 122 -1.0
443 122 1.0
74 123 -1.0
80 123 4.45628648004517
83 123 2.54515263975353
253 123 1.0
255 123 -1.0
344 123 -1.0
345 123 1.0
371 123 -1.0
377 123 -1.0
389 123 1.0
498 123 1.0
499 123 -1.0
77 124 1.0
78 124 1.5
78 125 -1.0
84 125 -1.0
150 125 1.0
156 125 -1.0
444 125 1.0
78 126 -1.0
81 126 4.45628648004517
84 126 2.54515263975353
254 126 1.0
255 126 1.0
345 126 -1.0
372 126 -1.0
378 126 -1.0
390 126 1.0
500 126 1.0
501 126 -1.0
85 127 -1.0
88 127 -1.0
91 127 -1.0
94 127 -1.0
97 127 4.45628648004517
100 127 30.0
103 127 15.0
256 127 -1.0
257 127 -1.0
346 127 -1.0
347 127 1.0
348 127 1.0
379 127 -1.0
391 127 1.0
394 127 1.0
502 127 1.0
503 127 -1.0
86 128 -1.0
89 128 -1.0
92 128 -1.0
95 128 -1.0
98 128 4.45628648004517
101 128 30.0
104 128 15.0
256 128 1.0
258 128 -1.0
347 128 -1.0
348 128 1.0
380 128 -1.0
392 128 1.0
395 128 1.0
504 128 1.0
505 128 -1.0
87 129 -1.0
90 129 -1.0
93 129 -1.0
96 129 -1.0
99 129 4.45628648004517
102 129 30.0
105 129 15.0
257 129 1.0
258 129 1.0
348 129 -1.0
381 129 -1.0
393 129 1.0
396 129 1.0
506 129 1.0
507 129 -1.0
108 130 1.0
109 130 1.25
109 131 -1.0
118 131 3.34221486003388
121 131 1.83548069293539
259 131 -1.0
260 131 -1.0
349 131 -1.0
350 131 1.0
351 131 1.0
367 131 1.0
382 131 -1.0
508 131 1.0
509 131 -1.0
112 132 1.0
113 132 1.25
113 133 -1.0
119 133 3.34221486003388
122 133 1.83548069293539
259 133 1.0
261 133 -1.0
350 133 -1.0
351 133 1.0
368 133 1.0
383 133 -1.0
510 133 1.0
511 133 -1.0
116 134 1.0
117 134 1.25
117 135 -1.0
120 135 3.34221486003388
123 135 1.83548069293539
260 135 1.0
261 135 1.0
351 135 -1.0
369 135 1.0
384 135 -1.0
512 135 1.0
513 135 -1.0
126 136 1.0
127 136 0.9
127 137 -1.0
136 137 3.34221486003388
139 137 1.32154609891348
262 137 -1.0
263 137 -1.0
352 137 -1.0
353 137 1.0
354 137 1.0
367 137 1.0
385 137 -1.0
514 137 1.0
515 137 -1.0
130 138 1.0
131 138 0.9
131 139 -1.0
137 139 3.34221486003388
140 139 1.32154609891348
262 139 1.0
264 139 -1.0
353 139 -1.0
354 139 1.0
368 139 1.0
386 139 -1.0
516 139 1.0
517 139 -1.0
134 140 1.0
135 140 0.9
135 141 -1.0
138 141 3.34221486003388
141 141 1.32154609891348
263 141 1.0
264 141 1.0
354 141 -1.0
369 141 1.0
387 141 -1.0
518 141 1.0
519 141 -1.0
144 142 1.0
145 142 1.0
145 143 -1.0
154 143 2.54515263975353
157 143 1.26558121681553
265 143 -1.0
266 143 -1.0
355 143 -1.0
356 143 1.0
357 143 1.0
370 143 1.0
388 143 -1.0
520 143 1.0
521 143 -1.0
148 144 1.0
149 144 1.0
149 145 -1.0
155 145 2.54515263975353
158 145 1.26558121681553
265 145 1.0
267 145 -1.0
356 145 -1.0
357 145 1.0
371 145 1.0
389 145 -1.0
522 145 1.0
523 145 -1.0
152 146 1.0
153 146 1.0
153 147 -1.0
156 147 2.54515263975353
159 147 1.26558121681553
266 147 1.0
267 147 1.0
357 147 -1.0
372 147 1.0
390 147 -1.0
524 147 1.0
525 147 -1.0
160 148 -1.0
163 148 -1.0
166 148 15.0
169 148 13.5
268 148 -1.0
269 148 -1.0
358 148 -1.0
359 148 1.0
360 148 1.0
391 148 -1.0
526 148 1.0
527 148 -1.0
161 149 -1.0
164 149 -1.0
167 149 15.0
170 149 13.5
268 149 1.0
270 149 -1.0
359 149 -1.0
360 149 1.0
392 149 -1.0
528 149 1.0
529 149 -1.0
162 150 -1.0
165 150 -1.0
168 150 15.0
171 150 13.5
269 150 1.0
270 150 1.0
360 150 -1.0
393 150 -1.0
530 150 1.0
531 150 -1.0
172 151 -1.0
175 151 -1.0
178 151 15.0
181 151 9.0
271 151 -1.0
272 151 -1.0
361 151 -1.0
362 151 1.0
363 151 1.0
394 151 -1.0
532 151 1.0
533 151 -1.0
173 152 -1.0
176 152 -1.0
179 152 15.0
182 152 9.0
271 152 1.0
273 152 -1.0
362 152 -1.0
363 152 1.0
395 152 -1.0
534 152 1.0
535 152 -1.0
174 153 -1.0
177 153 -1.0
180 153 15.0
183 153 9.0
272 153 1.0
273 153 1.0
363 153 -1.0
396 153 -1.0
536 153 1.0
537 153 -1.0
184 154 -1.0
214 154 1.0
185 155 -1.0
215 155 1.0
186 156 -1.0
216 156 1.0
187 157 -1.0
217 157 1.0
188 158 -1.0
218 158 1.0
189 159 -1.0
219 159 1.0
190 160 -1.0
220 160 1.0
191 161 -1.0
221 161 1.0
192 162 -1.0
222 162 1.0
193 163 -1.0
223 163 1.0
194 164 -1.0
224 164 1.0
195 165 -1.0
225 165 1.0
196 166 -1.0
226 166 1.0
197 167 -1.0
227 167 1.0
198 168 -1.0
228 168 1.0
199 169 -1.0
229 169 1.0
200 170 -1.0
230 170 1.0
201 171 -1.0
231 171 1.0
202 172 -1.0
232 172 1.0
203 173 -1.0
233 173 1.0
204 174 -1.0
234 174 1.0
205 175 -1.0
235 175 1.0
206 176 -1.0
236 176 1.0
207 177 -1.0
237 177 1.0
208 178 -1.0
238 178 1.0
209 179 -1.0
239 179 1.0
210 180 -1.0
240 180 1.0
211 181 -1.0
241 181 1.0
212 182 -1.0
242 182 1.0
213 183 -1.0
243 183 1.0

BCOORD
213
19 1.0
20 1.0
22 1.0
23 1.0
24 1.0
26 1.0
27 1.0
28 1.0
30 1.0
37 1.0
38 1.0
40 1.0
41 1.0
42 1.0
44 1.0
45 1.0
46 1.0
48 1.0
55 1.0
56 1.0
57 1.0
58 1.0
59 1.0
60 1.0
67 1.0
68 1.0
70 1.0
71 1.0
72 1.0
74 1.0
75 1.0
76 1.0
78 1.0
85 1.0
86 1.0
87 1.0
88 1.0
89 1.0
90 1.0
91 1.0
92 1.0
93 1.0
94 1.0
95 1.0
96 1.0
106 1.0
107 1.0
109 1.0
110 1.0
111 1.0
113 1.0
114 1.0
115 1.0
117 1.0
124 1.0
125 1.0
127 1.0
128 1.0
129 1.0
131 1.0
132 1.0
133 1.0
135 1.0
142 1.0
143 1.0
145 1.0
146 1.0
147 1.0
149 1.0
150 1.0
151 1.0
153 1.0
160 1.0
161 1.0
162 1.0
163 1.0
164 1.0
165 1.0
172 1.0
173 1.0
174 1.0
175 1.0
176 1.0
177 1.0
274 1.0
275 1.0
276 1.0
277 1.0
278 1.0
279 1.0
280 1.0
281 1.0
282 1.0
283 1.0
284 1.0
285 1.0
286 1.0
287 1.0
288 1.0
289 1.0
290 1.0
291 1.0
292 1.0
293 1.0
294 1.0
295 1.0
296 1.0
297 1.0
298 1.0
299 1.0
300 1.0
301 1.0
302 1.0
303 1.0
304 1.0
305 1.0
306 1.0
307 1.0
308 1.0
309 1.0
310 1.0
311 1.0
312 1.0
313 1.0
314 1.0
315 1.0
316 1.0
317 1.0
318 1.0
319 1.0
320 1.0
321 1.0
322 1.0
323 1.0
324 1.0
325 1.0
326 1.0
327 1.0
328 1.0
329 1.0
330 1.0
331 1.0
332 1.0
333 1.0
364 -1.0
365 -1.0
366 -1.0
398 40.0
400 40.0
402 40.0
434 30.0
436 30.0
438 30.0
479 1.0
481 1.0
483 1.0
485 1.0
487 1.0
489 1.0
491 1.0
493 1.0
495 1.0
497 1.0
499 1.0
501 1.0
503 1.0
505 1.0
507 1.0
509 1.0
511 1.0
513 1.0
515 1.0
517 1.0
519 1.0
521 1.0
523 1.0
525 1.0
527 1.0
529 1.0
531 1.0
533 1.0
535 1.0
537 1.0
539 1.0
541 1.0
543 1.0
545 1.0
547 1.0
549 1.0
551 1.0
553 1.0
555 1.0
557 1.0
559 1.0
561 1.0
563 1.0
565 1.0
567 1.0
569 1.0
571 1.0
573 1.0
575 1.0
577 1.0
579 1.0
581 1.0
583 1.0
585 1.0
587 1.0
589 1.0
591 1.0
593 1.0
595 1.0
597 1.0
